; QueryHash 12372226995774837664
(set-logic QF_AUFBV )
(declare-fun arg01 () (Array (_ BitVec 32) (_ BitVec 8) ) )
(assert (let ( (?B1 (select  arg01 (_ bv3 32) ) ) ) (and  (=  false (=  (_ bv0 8) ?B1 ) ) (=  false (=  (_ bv92 8) ?B1 ) ) ) ) )
(check-sat)
(exit)

; Assignments
; { "arg01": [0, 0, 0, 0, 0, 0, 0, 0, 0, 1, 0] }
; { "arg01": [0, 0, 0, 0, 0, 0, 0, 0, 1, 0, 0] }
; { "arg01": [0, 0, 0, 0, 0, 0, 0, 0, 101, 0, 0] }
; { "arg01": [0, 0, 0, 0, 0, 0, 0, 0, 110, 0, 0] }
; { "arg01": [0, 0, 0, 0, 0, 0, 0, 0, 2, 0, 0] }
; { "arg01": [0, 0, 0, 0, 0, 0, 0, 0, 69, 0, 0] }
; { "arg01": [0, 0, 0, 0, 0, 0, 0, 1, 0, 0, 0] }
; { "arg01": [0, 0, 0, 0, 0, 0, 0, 101, 0, 0, 0] }
; { "arg01": [0, 0, 0, 0, 0, 0, 0, 110, 0, 0, 0] }
; { "arg01": [0, 0, 0, 0, 0, 0, 0, 2, 0, 0, 0] }
; { "arg01": [0, 0, 0, 0, 0, 0, 0, 69, 0, 0, 0] }
; { "arg01": [0, 0, 0, 0, 0, 0, 1, 0, 0, 0, 0] }
; { "arg01": [0, 0, 0, 0, 0, 0, 101, 0, 0, 0, 0] }
; { "arg01": [0, 0, 0, 0, 0, 0, 110, 0, 0, 0, 0] }
; { "arg01": [0, 0, 0, 0, 0, 0, 2, 0, 0, 0, 0] }
; { "arg01": [0, 0, 0, 0, 0, 0, 69, 0, 0, 0, 0] }
; { "arg01": [0, 0, 0, 0, 0, 1, 0, 0, 0, 0, 0] }
; { "arg01": [0, 0, 0, 0, 0, 101, 0, 0, 0, 0, 0] }
; { "arg01": [0, 0, 0, 0, 0, 110, 0, 0, 0, 0, 0] }
; { "arg01": [0, 0, 0, 0, 0, 2, 0, 0, 0, 0, 0] }
; { "arg01": [0, 0, 0, 0, 0, 48, 0, 0, 0, 0, 0] }
; { "arg01": [0, 0, 0, 0, 0, 69, 0, 0, 0, 0, 0] }
; { "arg01": [0, 0, 0, 0, 1, 0, 0, 0, 0, 0, 0] }
; { "arg01": [0, 0, 0, 0, 100, 0, 0, 0, 0, 0, 0] }
; { "arg01": [0, 0, 0, 0, 101, 0, 0, 0, 0, 0, 0] }
; { "arg01": [0, 0, 0, 0, 102, 0, 0, 0, 0, 0, 0] }
; { "arg01": [0, 0, 0, 0, 110, 0, 0, 0, 0, 0, 0] }
; { "arg01": [0, 0, 0, 0, 2, 0, 0, 0, 0, 0, 0] }
; { "arg01": [0, 0, 0, 0, 48, 0, 0, 0, 0, 0, 0] }
; { "arg01": [0, 0, 0, 0, 65, 0, 0, 0, 0, 0, 0] }
; { "arg01": [0, 0, 0, 0, 66, 0, 0, 0, 0, 0, 0] }
; { "arg01": [0, 0, 0, 0, 67, 0, 0, 0, 0, 0, 0] }
; { "arg01": [0, 0, 0, 0, 68, 0, 0, 0, 0, 0, 0] }
; { "arg01": [0, 0, 0, 0, 69, 0, 0, 0, 0, 0, 0] }
; { "arg01": [0, 0, 0, 0, 70, 0, 0, 0, 0, 0, 0] }
; { "arg01": [0, 0, 0, 0, 97, 0, 0, 0, 0, 0, 0] }
; { "arg01": [0, 0, 0, 0, 98, 0, 0, 0, 0, 0, 0] }
; { "arg01": [0, 0, 0, 0, 99, 0, 0, 0, 0, 0, 0] }
; { "arg01": [0, 0, 0, 1, 0, 0, 0, 0, 0, 0, 0] }
; { "arg02": [0, 0, 0, 0, 0, 0, 0, 0, 0, 1, 0] }
; { "arg02": [0, 0, 0, 0, 0, 0, 0, 0, 1, 0, 0] }
; { "arg02": [0, 0, 0, 0, 0, 0, 0, 1, 0, 0, 0] }
; { "arg02": [0, 0, 0, 0, 0, 0, 1, 0, 0, 0, 0] }
; { "arg02": [0, 0, 0, 0, 0, 1, 0, 0, 0, 0, 0] }
; { "arg02": [0, 0, 0, 0, 1, 0, 0, 0, 0, 0, 0] }
; { "arg02": [0, 0, 0, 1, 0, 0, 0, 0, 0, 0, 0] }
; { "arg02": [0, 0, 1, 0, 0, 0, 0, 0, 0, 0, 0] }
; { "arg02": [0, 0, 48, 0, 0, 0, 0, 0, 0, 0, 0] }
; { "arg02": [0, 1, 0, 0, 0, 0, 0, 0, 0, 0, 0] }
; { "arg02": [0, 101, 0, 0, 0, 0, 0, 0, 0, 0, 0] }
; { "arg02": [0, 102, 0, 0, 0, 0, 0, 0, 0, 0, 0] }
; { "arg02": [0, 110, 0, 0, 0, 0, 0, 0, 0, 0, 0] }
; { "arg02": [0, 114, 0, 0, 0, 0, 0, 0, 0, 0, 0] }
; { "arg02": [0, 116, 0, 0, 0, 0, 0, 0, 0, 0, 0] }
; { "arg02": [0, 118, 0, 0, 0, 0, 0, 0, 0, 0, 0] }
; { "arg02": [0, 120, 0, 0, 0, 0, 0, 0, 0, 0, 0] }
; { "arg02": [0, 2, 0, 0, 0, 0, 0, 0, 0, 0, 0] }
; { "arg02": [0, 48, 0, 0, 0, 0, 0, 0, 0, 0, 0] }
; { "arg02": [0, 49, 0, 0, 0, 0, 0, 0, 0, 0, 0] }
; { "arg02": [0, 50, 0, 0, 0, 0, 0, 0, 0, 0, 0] }
; { "arg02": [0, 51, 0, 0, 0, 0, 0, 0, 0, 0, 0] }
; { "arg02": [0, 52, 0, 0, 0, 0, 0, 0, 0, 0, 0] }
; { "arg02": [0, 53, 0, 0, 0, 0, 0, 0, 0, 0, 0] }
; { "arg02": [0, 54, 0, 0, 0, 0, 0, 0, 0, 0, 0] }
; { "arg02": [0, 55, 0, 0, 0, 0, 0, 0, 0, 0, 0] }
; { "arg02": [0, 92, 0, 0, 0, 0, 0, 0, 0, 0, 0] }
; { "arg02": [0, 97, 0, 0, 0, 0, 0, 0, 0, 0, 0] }
; { "arg02": [0, 98, 0, 0, 0, 0, 0, 0, 0, 0, 0] }
; { "arg02": [0, 99, 0, 0, 0, 0, 0, 0, 0, 0, 0] }
; { "arg02": [1, 0, 0, 0, 0, 0, 0, 0, 0, 0, 0] }
; { "arg02": [45, 0, 0, 0, 0, 0, 0, 0, 0, 0, 0] }
; { "arg02": [92, 0, 0, 0, 0, 0, 0, 0, 0, 0, 0] }
; { "model_version": [1, 0, 0, 0] }
